
(set-option :produce-models true)
(set-option :inline-size-limit 10000)

(declare-const var0 String)

(push 1)
(assert (str.in.re var0 (re.* (re.range "\x01" "\xff"))))
(assert (str.in.re var0 (re.++ (re.++ (re.++ (re.++ re.begin-anchor (re.++ (re.opt ((_ re.capture 1) (re.++ (str.to.re "+") (re.++ (re.opt ((_ re.capture 2) (re.++ (str.to.re "1") (str.to.re "-")))) ((_ re.loop 1 3) (re.range "0" "9")))))) (re.++ (re.opt ((_ re.capture 3) (re.union (re.union (str.to.re " ") (re.union (str.to.re "\u{0b}") (re.union (str.to.re "\u{0a}") (re.union (str.to.re "\u{0d}") (re.union (str.to.re "\u{09}") (str.to.re "\u{0c}")))))) (str.to.re "-")))) (re.++ (re.opt ((_ re.capture 4) (re.union (re.union (str.to.re " ") (re.union (str.to.re "\u{0b}") (re.union (str.to.re "\u{0a}") (re.union (str.to.re "\u{0d}") (re.union (str.to.re "\u{09}") (str.to.re "\u{0c}")))))) (str.to.re "-")))) (re.++ ((_ re.capture 5) (re.union (re.++ ((_ re.capture 6) (re.union (re.++ (str.to.re "(") (re.++ ((_ re.loop 0 2) (re.range "0" "9")) (str.to.re ")"))) ((_ re.loop 0 2) (re.range "0" "9")))) (re.++ (re.opt ((_ re.capture 7) (re.union (re.union (str.to.re " ") (re.union (str.to.re "\u{0b}") (re.union (str.to.re "\u{0a}") (re.union (str.to.re "\u{0d}") (re.union (str.to.re "\u{09}") (str.to.re "\u{0c}")))))) (str.to.re "-")))) ((_ re.loop 0 4) (re.range "0" "9")))) (re.++ ((_ re.capture 8) (re.union (re.++ (str.to.re "(") (re.++ ((_ re.loop 0 3) (re.range "0" "9")) (str.to.re ")"))) ((_ re.loop 0 3) (re.range "0" "9")))) (re.++ (re.opt ((_ re.capture 9) (re.union (re.union (str.to.re " ") (re.union (str.to.re "\u{0b}") (re.union (str.to.re "\u{0a}") (re.union (str.to.re "\u{0d}") (re.union (str.to.re "\u{09}") (str.to.re "\u{0c}")))))) (str.to.re "-")))) ((_ re.loop 0 3) (re.range "0" "9")))))) (re.++ (re.opt ((_ re.capture 10) (re.union (re.union (str.to.re " ") (re.union (str.to.re "\u{0b}") (re.union (str.to.re "\u{0a}") (re.union (str.to.re "\u{0d}") (re.union (str.to.re "\u{09}") (str.to.re "\u{0c}")))))) (str.to.re "-")))) (re.++ ((_ re.loop 0 4) (re.range "0" "9")) (re.++ (re.opt ((_ re.capture 11) (re.union (str.to.re " ") (re.union (str.to.re "\u{0b}") (re.union (str.to.re "\u{0a}") (re.union (str.to.re "\u{0d}") (re.union (str.to.re "\u{09}") (str.to.re "\u{0c}")))))))) (re.++ (re.opt ((_ re.capture 12) (re.union (re.union (str.to.re "x") (re.++ (str.to.re "e") (re.++ (str.to.re "x") (str.to.re "t")))) (re.++ (str.to.re "e") (re.++ (str.to.re "x") (re.++ (str.to.re "t") (re.diff (re.range "\x01" "\xff") (str.to.re "\n")))))))) (re.opt ((_ re.capture 13) ((_ re.loop 1 6) (re.range "0" "9"))))))))))))) (re.++ (re.opt (str.to.re ",")) (re.opt ((_ re.capture 14) ((_ re.loop 1 6) (re.range "0" "9")))))) (re.++ (re.opt (str.to.re ",")) (re.opt ((_ re.capture 15) ((_ re.loop 1 6) (re.range "0" "9")))))) re.end-anchor)))	; match!==null
(assert (not (str.in.re ((_ str.extract 1) var0 (re.++ (re.++ (re.++ (re.++ re.begin-anchor (re.++ (re.opt ((_ re.capture 1) (re.++ (str.to.re "+") (re.++ (re.opt ((_ re.capture 2) (re.++ (str.to.re "1") (str.to.re "-")))) ((_ re.loop 1 3) (re.range "0" "9")))))) (re.++ (re.opt ((_ re.capture 3) (re.union (re.union (str.to.re " ") (re.union (str.to.re "\u{0b}") (re.union (str.to.re "\u{0a}") (re.union (str.to.re "\u{0d}") (re.union (str.to.re "\u{09}") (str.to.re "\u{0c}")))))) (str.to.re "-")))) (re.++ (re.opt ((_ re.capture 4) (re.union (re.union (str.to.re " ") (re.union (str.to.re "\u{0b}") (re.union (str.to.re "\u{0a}") (re.union (str.to.re "\u{0d}") (re.union (str.to.re "\u{09}") (str.to.re "\u{0c}")))))) (str.to.re "-")))) (re.++ ((_ re.capture 5) (re.union (re.++ ((_ re.capture 6) (re.union (re.++ (str.to.re "(") (re.++ ((_ re.loop 0 2) (re.range "0" "9")) (str.to.re ")"))) ((_ re.loop 0 2) (re.range "0" "9")))) (re.++ (re.opt ((_ re.capture 7) (re.union (re.union (str.to.re " ") (re.union (str.to.re "\u{0b}") (re.union (str.to.re "\u{0a}") (re.union (str.to.re "\u{0d}") (re.union (str.to.re "\u{09}") (str.to.re "\u{0c}")))))) (str.to.re "-")))) ((_ re.loop 0 4) (re.range "0" "9")))) (re.++ ((_ re.capture 8) (re.union (re.++ (str.to.re "(") (re.++ ((_ re.loop 0 3) (re.range "0" "9")) (str.to.re ")"))) ((_ re.loop 0 3) (re.range "0" "9")))) (re.++ (re.opt ((_ re.capture 9) (re.union (re.union (str.to.re " ") (re.union (str.to.re "\u{0b}") (re.union (str.to.re "\u{0a}") (re.union (str.to.re "\u{0d}") (re.union (str.to.re "\u{09}") (str.to.re "\u{0c}")))))) (str.to.re "-")))) ((_ re.loop 0 3) (re.range "0" "9")))))) (re.++ (re.opt ((_ re.capture 10) (re.union (re.union (str.to.re " ") (re.union (str.to.re "\u{0b}") (re.union (str.to.re "\u{0a}") (re.union (str.to.re "\u{0d}") (re.union (str.to.re "\u{09}") (str.to.re "\u{0c}")))))) (str.to.re "-")))) (re.++ ((_ re.loop 0 4) (re.range "0" "9")) (re.++ (re.opt ((_ re.capture 11) (re.union (str.to.re " ") (re.union (str.to.re "\u{0b}") (re.union (str.to.re "\u{0a}") (re.union (str.to.re "\u{0d}") (re.union (str.to.re "\u{09}") (str.to.re "\u{0c}")))))))) (re.++ (re.opt ((_ re.capture 12) (re.union (re.union (str.to.re "x") (re.++ (str.to.re "e") (re.++ (str.to.re "x") (str.to.re "t")))) (re.++ (str.to.re "e") (re.++ (str.to.re "x") (re.++ (str.to.re "t") (re.diff (re.range "\x01" "\xff") (str.to.re "\n")))))))) (re.opt ((_ re.capture 13) ((_ re.loop 1 6) (re.range "0" "9"))))))))))))) (re.++ (re.opt (str.to.re ",")) (re.opt ((_ re.capture 14) ((_ re.loop 1 6) (re.range "0" "9")))))) (re.++ (re.opt (str.to.re ",")) (re.opt ((_ re.capture 15) ((_ re.loop 1 6) (re.range "0" "9")))))) re.end-anchor)) (str.to.re "\x00"))))
;match[1]!==null
(assert (str.in.re ((_ str.extract 1) var0 (re.++ (re.++ (re.++ (re.++ re.begin-anchor (re.++ (re.opt ((_ re.capture 1) (re.++ (str.to.re "+") (re.++ (re.opt ((_ re.capture 2) (re.++ (str.to.re "1") (str.to.re "-")))) ((_ re.loop 1 3) (re.range "0" "9")))))) (re.++ (re.opt ((_ re.capture 3) (re.union (re.union (str.to.re " ") (re.union (str.to.re "\u{0b}") (re.union (str.to.re "\u{0a}") (re.union (str.to.re "\u{0d}") (re.union (str.to.re "\u{09}") (str.to.re "\u{0c}")))))) (str.to.re "-")))) (re.++ (re.opt ((_ re.capture 4) (re.union (re.union (str.to.re " ") (re.union (str.to.re "\u{0b}") (re.union (str.to.re "\u{0a}") (re.union (str.to.re "\u{0d}") (re.union (str.to.re "\u{09}") (str.to.re "\u{0c}")))))) (str.to.re "-")))) (re.++ ((_ re.capture 5) (re.union (re.++ ((_ re.capture 6) (re.union (re.++ (str.to.re "(") (re.++ ((_ re.loop 0 2) (re.range "0" "9")) (str.to.re ")"))) ((_ re.loop 0 2) (re.range "0" "9")))) (re.++ (re.opt ((_ re.capture 7) (re.union (re.union (str.to.re " ") (re.union (str.to.re "\u{0b}") (re.union (str.to.re "\u{0a}") (re.union (str.to.re "\u{0d}") (re.union (str.to.re "\u{09}") (str.to.re "\u{0c}")))))) (str.to.re "-")))) ((_ re.loop 0 4) (re.range "0" "9")))) (re.++ ((_ re.capture 8) (re.union (re.++ (str.to.re "(") (re.++ ((_ re.loop 0 3) (re.range "0" "9")) (str.to.re ")"))) ((_ re.loop 0 3) (re.range "0" "9")))) (re.++ (re.opt ((_ re.capture 9) (re.union (re.union (str.to.re " ") (re.union (str.to.re "\u{0b}") (re.union (str.to.re "\u{0a}") (re.union (str.to.re "\u{0d}") (re.union (str.to.re "\u{09}") (str.to.re "\u{0c}")))))) (str.to.re "-")))) ((_ re.loop 0 3) (re.range "0" "9")))))) (re.++ (re.opt ((_ re.capture 10) (re.union (re.union (str.to.re " ") (re.union (str.to.re "\u{0b}") (re.union (str.to.re "\u{0a}") (re.union (str.to.re "\u{0d}") (re.union (str.to.re "\u{09}") (str.to.re "\u{0c}")))))) (str.to.re "-")))) (re.++ ((_ re.loop 0 4) (re.range "0" "9")) (re.++ (re.opt ((_ re.capture 11) (re.union (str.to.re " ") (re.union (str.to.re "\u{0b}") (re.union (str.to.re "\u{0a}") (re.union (str.to.re "\u{0d}") (re.union (str.to.re "\u{09}") (str.to.re "\u{0c}")))))))) (re.++ (re.opt ((_ re.capture 12) (re.union (re.union (str.to.re "x") (re.++ (str.to.re "e") (re.++ (str.to.re "x") (str.to.re "t")))) (re.++ (str.to.re "e") (re.++ (str.to.re "x") (re.++ (str.to.re "t") (re.diff (re.range "\x01" "\xff") (str.to.re "\n")))))))) (re.opt ((_ re.capture 13) ((_ re.loop 1 6) (re.range "0" "9"))))))))))))) (re.++ (re.opt (str.to.re ",")) (re.opt ((_ re.capture 14) ((_ re.loop 1 6) (re.range "0" "9")))))) (re.++ (re.opt (str.to.re ",")) (re.opt ((_ re.capture 15) ((_ re.loop 1 6) (re.range "0" "9")))))) re.end-anchor)) (re.++ re.all(re.+ (re.range "a" "z")) re.all) ))
;/[a-z]+/.test(match[1]) == true
(check-sat)
(get-model)
(pop 1)
(push 1)
(assert (str.in.re var0 (re.* (re.range "\x01" "\xff"))))
(assert (str.in.re var0 (re.++ (re.++ (re.++ (re.++ re.begin-anchor (re.++ (re.opt ((_ re.capture 1) (re.++ (str.to.re "+") (re.++ (re.opt ((_ re.capture 2) (re.++ (str.to.re "1") (str.to.re "-")))) ((_ re.loop 1 3) (re.range "0" "9")))))) (re.++ (re.opt ((_ re.capture 3) (re.union (re.union (str.to.re " ") (re.union (str.to.re "\u{0b}") (re.union (str.to.re "\u{0a}") (re.union (str.to.re "\u{0d}") (re.union (str.to.re "\u{09}") (str.to.re "\u{0c}")))))) (str.to.re "-")))) (re.++ (re.opt ((_ re.capture 4) (re.union (re.union (str.to.re " ") (re.union (str.to.re "\u{0b}") (re.union (str.to.re "\u{0a}") (re.union (str.to.re "\u{0d}") (re.union (str.to.re "\u{09}") (str.to.re "\u{0c}")))))) (str.to.re "-")))) (re.++ ((_ re.capture 5) (re.union (re.++ ((_ re.capture 6) (re.union (re.++ (str.to.re "(") (re.++ ((_ re.loop 0 2) (re.range "0" "9")) (str.to.re ")"))) ((_ re.loop 0 2) (re.range "0" "9")))) (re.++ (re.opt ((_ re.capture 7) (re.union (re.union (str.to.re " ") (re.union (str.to.re "\u{0b}") (re.union (str.to.re "\u{0a}") (re.union (str.to.re "\u{0d}") (re.union (str.to.re "\u{09}") (str.to.re "\u{0c}")))))) (str.to.re "-")))) ((_ re.loop 0 4) (re.range "0" "9")))) (re.++ ((_ re.capture 8) (re.union (re.++ (str.to.re "(") (re.++ ((_ re.loop 0 3) (re.range "0" "9")) (str.to.re ")"))) ((_ re.loop 0 3) (re.range "0" "9")))) (re.++ (re.opt ((_ re.capture 9) (re.union (re.union (str.to.re " ") (re.union (str.to.re "\u{0b}") (re.union (str.to.re "\u{0a}") (re.union (str.to.re "\u{0d}") (re.union (str.to.re "\u{09}") (str.to.re "\u{0c}")))))) (str.to.re "-")))) ((_ re.loop 0 3) (re.range "0" "9")))))) (re.++ (re.opt ((_ re.capture 10) (re.union (re.union (str.to.re " ") (re.union (str.to.re "\u{0b}") (re.union (str.to.re "\u{0a}") (re.union (str.to.re "\u{0d}") (re.union (str.to.re "\u{09}") (str.to.re "\u{0c}")))))) (str.to.re "-")))) (re.++ ((_ re.loop 0 4) (re.range "0" "9")) (re.++ (re.opt ((_ re.capture 11) (re.union (str.to.re " ") (re.union (str.to.re "\u{0b}") (re.union (str.to.re "\u{0a}") (re.union (str.to.re "\u{0d}") (re.union (str.to.re "\u{09}") (str.to.re "\u{0c}")))))))) (re.++ (re.opt ((_ re.capture 12) (re.union (re.union (str.to.re "x") (re.++ (str.to.re "e") (re.++ (str.to.re "x") (str.to.re "t")))) (re.++ (str.to.re "e") (re.++ (str.to.re "x") (re.++ (str.to.re "t") (re.diff (re.range "\x01" "\xff") (str.to.re "\n")))))))) (re.opt ((_ re.capture 13) ((_ re.loop 1 6) (re.range "0" "9"))))))))))))) (re.++ (re.opt (str.to.re ",")) (re.opt ((_ re.capture 14) ((_ re.loop 1 6) (re.range "0" "9")))))) (re.++ (re.opt (str.to.re ",")) (re.opt ((_ re.capture 15) ((_ re.loop 1 6) (re.range "0" "9")))))) re.end-anchor)))	; match!==null
(assert (not (str.in.re ((_ str.extract 1) var0 (re.++ (re.++ (re.++ (re.++ re.begin-anchor (re.++ (re.opt ((_ re.capture 1) (re.++ (str.to.re "+") (re.++ (re.opt ((_ re.capture 2) (re.++ (str.to.re "1") (str.to.re "-")))) ((_ re.loop 1 3) (re.range "0" "9")))))) (re.++ (re.opt ((_ re.capture 3) (re.union (re.union (str.to.re " ") (re.union (str.to.re "\u{0b}") (re.union (str.to.re "\u{0a}") (re.union (str.to.re "\u{0d}") (re.union (str.to.re "\u{09}") (str.to.re "\u{0c}")))))) (str.to.re "-")))) (re.++ (re.opt ((_ re.capture 4) (re.union (re.union (str.to.re " ") (re.union (str.to.re "\u{0b}") (re.union (str.to.re "\u{0a}") (re.union (str.to.re "\u{0d}") (re.union (str.to.re "\u{09}") (str.to.re "\u{0c}")))))) (str.to.re "-")))) (re.++ ((_ re.capture 5) (re.union (re.++ ((_ re.capture 6) (re.union (re.++ (str.to.re "(") (re.++ ((_ re.loop 0 2) (re.range "0" "9")) (str.to.re ")"))) ((_ re.loop 0 2) (re.range "0" "9")))) (re.++ (re.opt ((_ re.capture 7) (re.union (re.union (str.to.re " ") (re.union (str.to.re "\u{0b}") (re.union (str.to.re "\u{0a}") (re.union (str.to.re "\u{0d}") (re.union (str.to.re "\u{09}") (str.to.re "\u{0c}")))))) (str.to.re "-")))) ((_ re.loop 0 4) (re.range "0" "9")))) (re.++ ((_ re.capture 8) (re.union (re.++ (str.to.re "(") (re.++ ((_ re.loop 0 3) (re.range "0" "9")) (str.to.re ")"))) ((_ re.loop 0 3) (re.range "0" "9")))) (re.++ (re.opt ((_ re.capture 9) (re.union (re.union (str.to.re " ") (re.union (str.to.re "\u{0b}") (re.union (str.to.re "\u{0a}") (re.union (str.to.re "\u{0d}") (re.union (str.to.re "\u{09}") (str.to.re "\u{0c}")))))) (str.to.re "-")))) ((_ re.loop 0 3) (re.range "0" "9")))))) (re.++ (re.opt ((_ re.capture 10) (re.union (re.union (str.to.re " ") (re.union (str.to.re "\u{0b}") (re.union (str.to.re "\u{0a}") (re.union (str.to.re "\u{0d}") (re.union (str.to.re "\u{09}") (str.to.re "\u{0c}")))))) (str.to.re "-")))) (re.++ ((_ re.loop 0 4) (re.range "0" "9")) (re.++ (re.opt ((_ re.capture 11) (re.union (str.to.re " ") (re.union (str.to.re "\u{0b}") (re.union (str.to.re "\u{0a}") (re.union (str.to.re "\u{0d}") (re.union (str.to.re "\u{09}") (str.to.re "\u{0c}")))))))) (re.++ (re.opt ((_ re.capture 12) (re.union (re.union (str.to.re "x") (re.++ (str.to.re "e") (re.++ (str.to.re "x") (str.to.re "t")))) (re.++ (str.to.re "e") (re.++ (str.to.re "x") (re.++ (str.to.re "t") (re.diff (re.range "\x01" "\xff") (str.to.re "\n")))))))) (re.opt ((_ re.capture 13) ((_ re.loop 1 6) (re.range "0" "9"))))))))))))) (re.++ (re.opt (str.to.re ",")) (re.opt ((_ re.capture 14) ((_ re.loop 1 6) (re.range "0" "9")))))) (re.++ (re.opt (str.to.re ",")) (re.opt ((_ re.capture 15) ((_ re.loop 1 6) (re.range "0" "9")))))) re.end-anchor)) (str.to.re "\x00"))))	
;match[1]!==null
(assert (not (str.in.re ((_ str.extract 1) var0 (re.++ (re.++ (re.++ (re.++ re.begin-anchor (re.++ (re.opt ((_ re.capture 1) (re.++ (str.to.re "+") (re.++ (re.opt ((_ re.capture 2) (re.++ (str.to.re "1") (str.to.re "-")))) ((_ re.loop 1 3) (re.range "0" "9")))))) (re.++ (re.opt ((_ re.capture 3) (re.union (re.union (str.to.re " ") (re.union (str.to.re "\u{0b}") (re.union (str.to.re "\u{0a}") (re.union (str.to.re "\u{0d}") (re.union (str.to.re "\u{09}") (str.to.re "\u{0c}")))))) (str.to.re "-")))) (re.++ (re.opt ((_ re.capture 4) (re.union (re.union (str.to.re " ") (re.union (str.to.re "\u{0b}") (re.union (str.to.re "\u{0a}") (re.union (str.to.re "\u{0d}") (re.union (str.to.re "\u{09}") (str.to.re "\u{0c}")))))) (str.to.re "-")))) (re.++ ((_ re.capture 5) (re.union (re.++ ((_ re.capture 6) (re.union (re.++ (str.to.re "(") (re.++ ((_ re.loop 0 2) (re.range "0" "9")) (str.to.re ")"))) ((_ re.loop 0 2) (re.range "0" "9")))) (re.++ (re.opt ((_ re.capture 7) (re.union (re.union (str.to.re " ") (re.union (str.to.re "\u{0b}") (re.union (str.to.re "\u{0a}") (re.union (str.to.re "\u{0d}") (re.union (str.to.re "\u{09}") (str.to.re "\u{0c}")))))) (str.to.re "-")))) ((_ re.loop 0 4) (re.range "0" "9")))) (re.++ ((_ re.capture 8) (re.union (re.++ (str.to.re "(") (re.++ ((_ re.loop 0 3) (re.range "0" "9")) (str.to.re ")"))) ((_ re.loop 0 3) (re.range "0" "9")))) (re.++ (re.opt ((_ re.capture 9) (re.union (re.union (str.to.re " ") (re.union (str.to.re "\u{0b}") (re.union (str.to.re "\u{0a}") (re.union (str.to.re "\u{0d}") (re.union (str.to.re "\u{09}") (str.to.re "\u{0c}")))))) (str.to.re "-")))) ((_ re.loop 0 3) (re.range "0" "9")))))) (re.++ (re.opt ((_ re.capture 10) (re.union (re.union (str.to.re " ") (re.union (str.to.re "\u{0b}") (re.union (str.to.re "\u{0a}") (re.union (str.to.re "\u{0d}") (re.union (str.to.re "\u{09}") (str.to.re "\u{0c}")))))) (str.to.re "-")))) (re.++ ((_ re.loop 0 4) (re.range "0" "9")) (re.++ (re.opt ((_ re.capture 11) (re.union (str.to.re " ") (re.union (str.to.re "\u{0b}") (re.union (str.to.re "\u{0a}") (re.union (str.to.re "\u{0d}") (re.union (str.to.re "\u{09}") (str.to.re "\u{0c}")))))))) (re.++ (re.opt ((_ re.capture 12) (re.union (re.union (str.to.re "x") (re.++ (str.to.re "e") (re.++ (str.to.re "x") (str.to.re "t")))) (re.++ (str.to.re "e") (re.++ (str.to.re "x") (re.++ (str.to.re "t") (re.diff (re.range "\x01" "\xff") (str.to.re "\n")))))))) (re.opt ((_ re.capture 13) ((_ re.loop 1 6) (re.range "0" "9"))))))))))))) (re.++ (re.opt (str.to.re ",")) (re.opt ((_ re.capture 14) ((_ re.loop 1 6) (re.range "0" "9")))))) (re.++ (re.opt (str.to.re ",")) (re.opt ((_ re.capture 15) ((_ re.loop 1 6) (re.range "0" "9")))))) re.end-anchor)) (re.++ re.all(re.+ (re.range "a" "z")) re.all) )))
;/[a-z]+/.test(match[1]) == false	
(check-sat)
(get-model)
(pop 1)
(push 1)
(assert (str.in.re var0 (re.* (re.range "\x01" "\xff"))))
(assert (str.in.re var0 (re.++ (re.++ (re.++ (re.++ re.begin-anchor (re.++ (re.opt ((_ re.capture 1) (re.++ (str.to.re "+") (re.++ (re.opt ((_ re.capture 2) (re.++ (str.to.re "1") (str.to.re "-")))) ((_ re.loop 1 3) (re.range "0" "9")))))) (re.++ (re.opt ((_ re.capture 3) (re.union (re.union (str.to.re " ") (re.union (str.to.re "\u{0b}") (re.union (str.to.re "\u{0a}") (re.union (str.to.re "\u{0d}") (re.union (str.to.re "\u{09}") (str.to.re "\u{0c}")))))) (str.to.re "-")))) (re.++ (re.opt ((_ re.capture 4) (re.union (re.union (str.to.re " ") (re.union (str.to.re "\u{0b}") (re.union (str.to.re "\u{0a}") (re.union (str.to.re "\u{0d}") (re.union (str.to.re "\u{09}") (str.to.re "\u{0c}")))))) (str.to.re "-")))) (re.++ ((_ re.capture 5) (re.union (re.++ ((_ re.capture 6) (re.union (re.++ (str.to.re "(") (re.++ ((_ re.loop 0 2) (re.range "0" "9")) (str.to.re ")"))) ((_ re.loop 0 2) (re.range "0" "9")))) (re.++ (re.opt ((_ re.capture 7) (re.union (re.union (str.to.re " ") (re.union (str.to.re "\u{0b}") (re.union (str.to.re "\u{0a}") (re.union (str.to.re "\u{0d}") (re.union (str.to.re "\u{09}") (str.to.re "\u{0c}")))))) (str.to.re "-")))) ((_ re.loop 0 4) (re.range "0" "9")))) (re.++ ((_ re.capture 8) (re.union (re.++ (str.to.re "(") (re.++ ((_ re.loop 0 3) (re.range "0" "9")) (str.to.re ")"))) ((_ re.loop 0 3) (re.range "0" "9")))) (re.++ (re.opt ((_ re.capture 9) (re.union (re.union (str.to.re " ") (re.union (str.to.re "\u{0b}") (re.union (str.to.re "\u{0a}") (re.union (str.to.re "\u{0d}") (re.union (str.to.re "\u{09}") (str.to.re "\u{0c}")))))) (str.to.re "-")))) ((_ re.loop 0 3) (re.range "0" "9")))))) (re.++ (re.opt ((_ re.capture 10) (re.union (re.union (str.to.re " ") (re.union (str.to.re "\u{0b}") (re.union (str.to.re "\u{0a}") (re.union (str.to.re "\u{0d}") (re.union (str.to.re "\u{09}") (str.to.re "\u{0c}")))))) (str.to.re "-")))) (re.++ ((_ re.loop 0 4) (re.range "0" "9")) (re.++ (re.opt ((_ re.capture 11) (re.union (str.to.re " ") (re.union (str.to.re "\u{0b}") (re.union (str.to.re "\u{0a}") (re.union (str.to.re "\u{0d}") (re.union (str.to.re "\u{09}") (str.to.re "\u{0c}")))))))) (re.++ (re.opt ((_ re.capture 12) (re.union (re.union (str.to.re "x") (re.++ (str.to.re "e") (re.++ (str.to.re "x") (str.to.re "t")))) (re.++ (str.to.re "e") (re.++ (str.to.re "x") (re.++ (str.to.re "t") (re.diff (re.range "\x01" "\xff") (str.to.re "\n")))))))) (re.opt ((_ re.capture 13) ((_ re.loop 1 6) (re.range "0" "9"))))))))))))) (re.++ (re.opt (str.to.re ",")) (re.opt ((_ re.capture 14) ((_ re.loop 1 6) (re.range "0" "9")))))) (re.++ (re.opt (str.to.re ",")) (re.opt ((_ re.capture 15) ((_ re.loop 1 6) (re.range "0" "9")))))) re.end-anchor)))	; match!==null
(assert (str.in.re ((_ str.extract 1) var0 (re.++ (re.++ (re.++ (re.++ re.begin-anchor (re.++ (re.opt ((_ re.capture 1) (re.++ (str.to.re "+") (re.++ (re.opt ((_ re.capture 2) (re.++ (str.to.re "1") (str.to.re "-")))) ((_ re.loop 1 3) (re.range "0" "9")))))) (re.++ (re.opt ((_ re.capture 3) (re.union (re.union (str.to.re " ") (re.union (str.to.re "\u{0b}") (re.union (str.to.re "\u{0a}") (re.union (str.to.re "\u{0d}") (re.union (str.to.re "\u{09}") (str.to.re "\u{0c}")))))) (str.to.re "-")))) (re.++ (re.opt ((_ re.capture 4) (re.union (re.union (str.to.re " ") (re.union (str.to.re "\u{0b}") (re.union (str.to.re "\u{0a}") (re.union (str.to.re "\u{0d}") (re.union (str.to.re "\u{09}") (str.to.re "\u{0c}")))))) (str.to.re "-")))) (re.++ ((_ re.capture 5) (re.union (re.++ ((_ re.capture 6) (re.union (re.++ (str.to.re "(") (re.++ ((_ re.loop 0 2) (re.range "0" "9")) (str.to.re ")"))) ((_ re.loop 0 2) (re.range "0" "9")))) (re.++ (re.opt ((_ re.capture 7) (re.union (re.union (str.to.re " ") (re.union (str.to.re "\u{0b}") (re.union (str.to.re "\u{0a}") (re.union (str.to.re "\u{0d}") (re.union (str.to.re "\u{09}") (str.to.re "\u{0c}")))))) (str.to.re "-")))) ((_ re.loop 0 4) (re.range "0" "9")))) (re.++ ((_ re.capture 8) (re.union (re.++ (str.to.re "(") (re.++ ((_ re.loop 0 3) (re.range "0" "9")) (str.to.re ")"))) ((_ re.loop 0 3) (re.range "0" "9")))) (re.++ (re.opt ((_ re.capture 9) (re.union (re.union (str.to.re " ") (re.union (str.to.re "\u{0b}") (re.union (str.to.re "\u{0a}") (re.union (str.to.re "\u{0d}") (re.union (str.to.re "\u{09}") (str.to.re "\u{0c}")))))) (str.to.re "-")))) ((_ re.loop 0 3) (re.range "0" "9")))))) (re.++ (re.opt ((_ re.capture 10) (re.union (re.union (str.to.re " ") (re.union (str.to.re "\u{0b}") (re.union (str.to.re "\u{0a}") (re.union (str.to.re "\u{0d}") (re.union (str.to.re "\u{09}") (str.to.re "\u{0c}")))))) (str.to.re "-")))) (re.++ ((_ re.loop 0 4) (re.range "0" "9")) (re.++ (re.opt ((_ re.capture 11) (re.union (str.to.re " ") (re.union (str.to.re "\u{0b}") (re.union (str.to.re "\u{0a}") (re.union (str.to.re "\u{0d}") (re.union (str.to.re "\u{09}") (str.to.re "\u{0c}")))))))) (re.++ (re.opt ((_ re.capture 12) (re.union (re.union (str.to.re "x") (re.++ (str.to.re "e") (re.++ (str.to.re "x") (str.to.re "t")))) (re.++ (str.to.re "e") (re.++ (str.to.re "x") (re.++ (str.to.re "t") (re.diff (re.range "\x01" "\xff") (str.to.re "\n")))))))) (re.opt ((_ re.capture 13) ((_ re.loop 1 6) (re.range "0" "9"))))))))))))) (re.++ (re.opt (str.to.re ",")) (re.opt ((_ re.capture 14) ((_ re.loop 1 6) (re.range "0" "9")))))) (re.++ (re.opt (str.to.re ",")) (re.opt ((_ re.capture 15) ((_ re.loop 1 6) (re.range "0" "9")))))) re.end-anchor)) (str.to.re "\x00")))
;match[1]==null
(check-sat)
(get-model)
(pop 1)
(push 1)
(assert (str.in.re var0 (re.* (re.range "\x01" "\xff"))))
(assert (not (str.in.re var0 (re.++ (re.++ (re.++ (re.++ re.begin-anchor (re.++ (re.opt ((_ re.capture 1) (re.++ (str.to.re "+") (re.++ (re.opt ((_ re.capture 2) (re.++ (str.to.re "1") (str.to.re "-")))) ((_ re.loop 1 3) (re.range "0" "9")))))) (re.++ (re.opt ((_ re.capture 3) (re.union (re.union (str.to.re " ") (re.union (str.to.re "\u{0b}") (re.union (str.to.re "\u{0a}") (re.union (str.to.re "\u{0d}") (re.union (str.to.re "\u{09}") (str.to.re "\u{0c}")))))) (str.to.re "-")))) (re.++ (re.opt ((_ re.capture 4) (re.union (re.union (str.to.re " ") (re.union (str.to.re "\u{0b}") (re.union (str.to.re "\u{0a}") (re.union (str.to.re "\u{0d}") (re.union (str.to.re "\u{09}") (str.to.re "\u{0c}")))))) (str.to.re "-")))) (re.++ ((_ re.capture 5) (re.union (re.++ ((_ re.capture 6) (re.union (re.++ (str.to.re "(") (re.++ ((_ re.loop 0 2) (re.range "0" "9")) (str.to.re ")"))) ((_ re.loop 0 2) (re.range "0" "9")))) (re.++ (re.opt ((_ re.capture 7) (re.union (re.union (str.to.re " ") (re.union (str.to.re "\u{0b}") (re.union (str.to.re "\u{0a}") (re.union (str.to.re "\u{0d}") (re.union (str.to.re "\u{09}") (str.to.re "\u{0c}")))))) (str.to.re "-")))) ((_ re.loop 0 4) (re.range "0" "9")))) (re.++ ((_ re.capture 8) (re.union (re.++ (str.to.re "(") (re.++ ((_ re.loop 0 3) (re.range "0" "9")) (str.to.re ")"))) ((_ re.loop 0 3) (re.range "0" "9")))) (re.++ (re.opt ((_ re.capture 9) (re.union (re.union (str.to.re " ") (re.union (str.to.re "\u{0b}") (re.union (str.to.re "\u{0a}") (re.union (str.to.re "\u{0d}") (re.union (str.to.re "\u{09}") (str.to.re "\u{0c}")))))) (str.to.re "-")))) ((_ re.loop 0 3) (re.range "0" "9")))))) (re.++ (re.opt ((_ re.capture 10) (re.union (re.union (str.to.re " ") (re.union (str.to.re "\u{0b}") (re.union (str.to.re "\u{0a}") (re.union (str.to.re "\u{0d}") (re.union (str.to.re "\u{09}") (str.to.re "\u{0c}")))))) (str.to.re "-")))) (re.++ ((_ re.loop 0 4) (re.range "0" "9")) (re.++ (re.opt ((_ re.capture 11) (re.union (str.to.re " ") (re.union (str.to.re "\u{0b}") (re.union (str.to.re "\u{0a}") (re.union (str.to.re "\u{0d}") (re.union (str.to.re "\u{09}") (str.to.re "\u{0c}")))))))) (re.++ (re.opt ((_ re.capture 12) (re.union (re.union (str.to.re "x") (re.++ (str.to.re "e") (re.++ (str.to.re "x") (str.to.re "t")))) (re.++ (str.to.re "e") (re.++ (str.to.re "x") (re.++ (str.to.re "t") (re.diff (re.range "\x01" "\xff") (str.to.re "\n")))))))) (re.opt ((_ re.capture 13) ((_ re.loop 1 6) (re.range "0" "9"))))))))))))) (re.++ (re.opt (str.to.re ",")) (re.opt ((_ re.capture 14) ((_ re.loop 1 6) (re.range "0" "9")))))) (re.++ (re.opt (str.to.re ",")) (re.opt ((_ re.capture 15) ((_ re.loop 1 6) (re.range "0" "9")))))) re.end-anchor))))	; match == null
(check-sat)
(get-model)
(pop 1)
(exit)
